15 3 
4273	4273	4273	
955	492	948	
418	1	1	
917	503	587	
681	989	1259	
722	257	486	
956	209	219	
613	913	1717	
187	254	369	
841	90	117	
623	543	1018	
723	191	287	
417	145	212	
660	399	648	
90	401	424	
485	311	590	
